num_wann = 8
num_bands = 8

! No disentanglement needed: num_wann = num_bands

num_iter = 500
num_print_cycles = 50

begin projections
  C: s;p
end projections

begin unit_cell_cart
ang
  0.0000000000  1.7835000000  1.7835000000
  1.7835000000  0.0000000000  1.7835000000
  1.7835000000  1.7835000000  0.0000000000
end unit_cell_cart

begin atoms_frac
  C  0.0000000000  0.0000000000  0.0000000000
  C  0.2500000000  0.2500000000  0.2500000000
end atoms_frac

mp_grid = 4 4 4

begin kpoints
  0.0000  0.0000  0.0000
  0.0000  0.0000  0.2500
  0.0000  0.0000  0.5000
  0.0000  0.0000  0.7500
  0.0000  0.2500  0.0000
  0.0000  0.2500  0.2500
  0.0000  0.2500  0.5000
  0.0000  0.2500  0.7500
  0.0000  0.5000  0.0000
  0.0000  0.5000  0.2500
  0.0000  0.5000  0.5000
  0.0000  0.5000  0.7500
  0.0000  0.7500  0.0000
  0.0000  0.7500  0.2500
  0.0000  0.7500  0.5000
  0.0000  0.7500  0.7500
  0.2500  0.0000  0.0000
  0.2500  0.0000  0.2500
  0.2500  0.0000  0.5000
  0.2500  0.0000  0.7500
  0.2500  0.2500  0.0000
  0.2500  0.2500  0.2500
  0.2500  0.2500  0.5000
  0.2500  0.2500  0.7500
  0.2500  0.5000  0.0000
  0.2500  0.5000  0.2500
  0.2500  0.5000  0.5000
  0.2500  0.5000  0.7500
  0.2500  0.7500  0.0000
  0.2500  0.7500  0.2500
  0.2500  0.7500  0.5000
  0.2500  0.7500  0.7500
  0.5000  0.0000  0.0000
  0.5000  0.0000  0.2500
  0.5000  0.0000  0.5000
  0.5000  0.0000  0.7500
  0.5000  0.2500  0.0000
  0.5000  0.2500  0.2500
  0.5000  0.2500  0.5000
  0.5000  0.2500  0.7500
  0.5000  0.5000  0.0000
  0.5000  0.5000  0.2500
  0.5000  0.5000  0.5000
  0.5000  0.5000  0.7500
  0.5000  0.7500  0.0000
  0.5000  0.7500  0.2500
  0.5000  0.7500  0.5000
  0.5000  0.7500  0.7500
  0.7500  0.0000  0.0000
  0.7500  0.0000  0.2500
  0.7500  0.0000  0.5000
  0.7500  0.0000  0.7500
  0.7500  0.2500  0.0000
  0.7500  0.2500  0.2500
  0.7500  0.2500  0.5000
  0.7500  0.2500  0.7500
  0.7500  0.5000  0.0000
  0.7500  0.5000  0.2500
  0.7500  0.5000  0.5000
  0.7500  0.5000  0.7500
  0.7500  0.7500  0.0000
  0.7500  0.7500  0.2500
  0.7500  0.7500  0.5000
  0.7500  0.7500  0.7500
end kpoints
