&inputpp
  outdir   = './tmp/'
  prefix   = 'diamond'
  calculation = 'eps'
/
&energy_grid
  smeartype   = 'gauss'
  intersmear  = 0.136
  wmin        = 0.0
  wmax        = 30.0
  nw          = 600
/
