&CONTROL
  calculation = 'nscf'
  prefix      = 'diamond'
  outdir      = './tmp/'
  pseudo_dir  = '../pseudo/'
/
&SYSTEM
  ibrav       = 0
  nat         = 2
  ntyp        = 1
  ecutwfc     = 60.0
  ecutrho     = 480.0
  occupations = 'fixed'
  nosym       = .true.
  nbnd        = 8
/
&ELECTRONS
  conv_thr = 1.0d-8
/
ATOMIC_SPECIES
  C  12.0107  C.pbe-n-kjpaw_psl.1.0.0.UPF

CELL_PARAMETERS angstrom
  0.0000000000  1.7835000000  1.7835000000
  1.7835000000  0.0000000000  1.7835000000
  1.7835000000  1.7835000000  0.0000000000

ATOMIC_POSITIONS crystal
  C  0.00  0.00  0.00
  C  0.25  0.25  0.25

K_POINTS crystal
64
  0.0000  0.0000  0.0000  0.01562500
  0.0000  0.0000  0.2500  0.01562500
  0.0000  0.0000  0.5000  0.01562500
  0.0000  0.0000  0.7500  0.01562500
  0.0000  0.2500  0.0000  0.01562500
  0.0000  0.2500  0.2500  0.01562500
  0.0000  0.2500  0.5000  0.01562500
  0.0000  0.2500  0.7500  0.01562500
  0.0000  0.5000  0.0000  0.01562500
  0.0000  0.5000  0.2500  0.01562500
  0.0000  0.5000  0.5000  0.01562500
  0.0000  0.5000  0.7500  0.01562500
  0.0000  0.7500  0.0000  0.01562500
  0.0000  0.7500  0.2500  0.01562500
  0.0000  0.7500  0.5000  0.01562500
  0.0000  0.7500  0.7500  0.01562500
  0.2500  0.0000  0.0000  0.01562500
  0.2500  0.0000  0.2500  0.01562500
  0.2500  0.0000  0.5000  0.01562500
  0.2500  0.0000  0.7500  0.01562500
  0.2500  0.2500  0.0000  0.01562500
  0.2500  0.2500  0.2500  0.01562500
  0.2500  0.2500  0.5000  0.01562500
  0.2500  0.2500  0.7500  0.01562500
  0.2500  0.5000  0.0000  0.01562500
  0.2500  0.5000  0.2500  0.01562500
  0.2500  0.5000  0.5000  0.01562500
  0.2500  0.5000  0.7500  0.01562500
  0.2500  0.7500  0.0000  0.01562500
  0.2500  0.7500  0.2500  0.01562500
  0.2500  0.7500  0.5000  0.01562500
  0.2500  0.7500  0.7500  0.01562500
  0.5000  0.0000  0.0000  0.01562500
  0.5000  0.0000  0.2500  0.01562500
  0.5000  0.0000  0.5000  0.01562500
  0.5000  0.0000  0.7500  0.01562500
  0.5000  0.2500  0.0000  0.01562500
  0.5000  0.2500  0.2500  0.01562500
  0.5000  0.2500  0.5000  0.01562500
  0.5000  0.2500  0.7500  0.01562500
  0.5000  0.5000  0.0000  0.01562500
  0.5000  0.5000  0.2500  0.01562500
  0.5000  0.5000  0.5000  0.01562500
  0.5000  0.5000  0.7500  0.01562500
  0.5000  0.7500  0.0000  0.01562500
  0.5000  0.7500  0.2500  0.01562500
  0.5000  0.7500  0.5000  0.01562500
  0.5000  0.7500  0.7500  0.01562500
  0.7500  0.0000  0.0000  0.01562500
  0.7500  0.0000  0.2500  0.01562500
  0.7500  0.0000  0.5000  0.01562500
  0.7500  0.0000  0.7500  0.01562500
  0.7500  0.2500  0.0000  0.01562500
  0.7500  0.2500  0.2500  0.01562500
  0.7500  0.2500  0.5000  0.01562500
  0.7500  0.2500  0.7500  0.01562500
  0.7500  0.5000  0.0000  0.01562500
  0.7500  0.5000  0.2500  0.01562500
  0.7500  0.5000  0.5000  0.01562500
  0.7500  0.5000  0.7500  0.01562500
  0.7500  0.7500  0.0000  0.01562500
  0.7500  0.7500  0.2500  0.01562500
  0.7500  0.7500  0.5000  0.01562500
  0.7500  0.7500  0.7500  0.01562500
