num_wann = 8
num_bands = 8

exclude_bands = 9-20

! No disentanglement needed: num_wann = num_bands (valence only)

num_iter = 500
num_print_cycles = 50

begin projections
  f=0.000000,0.000000,0.250000:s;p
  f=0.333333,0.666667,0.250000:s;p
end projections

begin unit_cell_cart
ang
  2.4610000000  0.0000000000  0.0000000000
 -1.2305000000  2.1314570000  0.0000000000
  0.0000000000  0.0000000000  6.7080000000
end unit_cell_cart

begin atoms_frac
  C  0.0000000000  0.0000000000  0.2500000000
  C  0.0000000000  0.0000000000  0.7500000000
  C  0.3333330000  0.6666670000  0.2500000000
  C  0.6666670000  0.3333330000  0.7500000000
end atoms_frac

mp_grid = 4 4 2

begin kpoints
  0.0000  0.0000  0.0000
  0.0000  0.0000  0.5000
  0.0000  0.2500  0.0000
  0.0000  0.2500  0.5000
  0.0000  0.5000  0.0000
  0.0000  0.5000  0.5000
  0.0000  0.7500  0.0000
  0.0000  0.7500  0.5000
  0.2500  0.0000  0.0000
  0.2500  0.0000  0.5000
  0.2500  0.2500  0.0000
  0.2500  0.2500  0.5000
  0.2500  0.5000  0.0000
  0.2500  0.5000  0.5000
  0.2500  0.7500  0.0000
  0.2500  0.7500  0.5000
  0.5000  0.0000  0.0000
  0.5000  0.0000  0.5000
  0.5000  0.2500  0.0000
  0.5000  0.2500  0.5000
  0.5000  0.5000  0.0000
  0.5000  0.5000  0.5000
  0.5000  0.7500  0.0000
  0.5000  0.7500  0.5000
  0.7500  0.0000  0.0000
  0.7500  0.0000  0.5000
  0.7500  0.2500  0.0000
  0.7500  0.2500  0.5000
  0.7500  0.5000  0.0000
  0.7500  0.5000  0.5000
  0.7500  0.7500  0.0000
  0.7500  0.7500  0.5000
end kpoints
