&inputpp
  outdir   = './tmp/'
  prefix   = 'graphite'
  seedname = 'graphite'
  write_mmn = .true.
  write_amn = .true.
  write_unk = .false.
/
