&INPUTPP
  prefix  = 'ag111'
  outdir  = './tmp/'
  filplot = 'ag_charge.dat'
  plot_num = 0
/
