&INPUTPP
  prefix = 'al111'
  outdir = './tmp/'
  filplot = 'al111_charge.dat'
  plot_num = 0
/
