&INPUTPP
  prefix  = 'al_ecut70'
  outdir  = './tmp_conv/al_ecut70/'
  filplot = 'al_ecut70_valence.dat'
  plot_num = 10
  emin = -15.0
  emax = 100.0
/
