&INPUTPP
  prefix  = 'al111'
  outdir  = './tmp/'
  filplot = 'al_emin-12_valence.dat'
  plot_num = 10
  emin = -12.0
  emax = 100.0
/
