&INPUTPP
  prefix  = 'al_L11'
  outdir  = './tmp_conv/al_L11/'
  filplot = 'al_L11_valence.dat'
  plot_num = 10
  emin = -15.0
  emax = 100.0
/
