&PROJWFC
  prefix  = 'al111'
  outdir  = './tmp/'
  filpdos = 'al_pdos'
  Emin    = -20.0
  Emax    = 15.0
  DeltaE  = 0.1
/
