&INPUTPP
  prefix  = 'al111'
  outdir  = './tmp/'
  filplot = 'al_valence_charge.dat'
  plot_num = 10
  emin = -15.0
  emax = 100.0
/
