&INPUTPP
  prefix  = 'be0001'
  outdir  = './tmp/'
  filplot = 'be_valence.dat'
  plot_num = 10
  emin = -15.0
  emax = 100.0
/
