&INPUTPP
  prefix  = 'ca111'
  outdir  = './tmp/'
  filplot = 'ca_valence.dat'
  plot_num = 10
  emin = -8.0
  emax = 0.0
/
