&INPUTPP
  prefix  = 'cu_ecut60'
  outdir  = './tmp_conv/cu_ecut60/'
  filplot = 'cu_ecut60_valence.dat'
  plot_num = 10
  emin = -10.0
  emax = 100.0
/
