&INPUTPP
  prefix  = 'cu111'
  outdir  = './tmp_cu/'
  filplot = 'cu_emin-8_valence.dat'
  plot_num = 10
  emin = -8.0
  emax = 100.0
/
