&INPUTPP
  prefix  = 'cu_ecut40'
  outdir  = './tmp_conv/cu_ecut40/'
  filplot = 'cu_ecut40_valence.dat'
  plot_num = 10
  emin = -10.0
  emax = 100.0
/
