&INPUTPP
  prefix  = 'cu_L7'
  outdir  = './tmp_conv/cu_L7/'
  filplot = 'cu_L7_valence.dat'
  plot_num = 10
  emin = -10.0
  emax = 100.0
/
