&INPUTPP
  prefix  = 'cu_L9'
  outdir  = './tmp_conv/cu_L9/'
  filplot = 'cu_L9_valence.dat'
  plot_num = 10
  emin = -10.0
  emax = 100.0
/
