&INPUTPP
  prefix  = 'cu111'
  outdir  = './tmp_cu/'
  filplot = 'cu_valence_charge.dat'
  plot_num = 10
  emin = -10.0
  emax = 100.0
/
