&INPUTPP
  prefix  = 'fe110'
  outdir  = './tmp/'
  filplot = 'fe_valence.dat'
  plot_num = 10
  emin = -10.0
  emax = 0.0
/
