&INPUTPP
  prefix  = 'ga111'
  outdir  = './tmp/'
  filplot = 'ga_charge.dat'
  plot_num = 0
/
