&INPUTPP
  prefix  = 'ga111'
  outdir  = './tmp/'
  filplot = 'ga_valence.dat'
  plot_num = 10
  emin = -15.0
  emax = 0.0
/
