&INPUTPP
  prefix  = 'li110'
  outdir  = './tmp/'
  filplot = 'li_valence.dat'
  plot_num = 10
  emin = -5.0
  emax = 100.0
/
