&INPUTPP
  prefix  = 'na110'
  outdir  = './tmp/'
  filplot = 'na_emin-7_valence.dat'
  plot_num = 10
  emin = -7.0
  emax = 100.0
/
