&INPUTPP
  prefix  = 'na110'
  outdir  = './tmp/'
  filplot = 'na_valence_charge.dat'
  plot_num = 10
  emin = -5.0
  emax = 100.0
/
