&INPUTPP
  prefix  = 'ni111'
  outdir  = './tmp/'
  filplot = 'ni_charge.dat'
  plot_num = 0
/
