&INPUTPP
  prefix  = 'ni111'
  outdir  = './tmp/'
  filplot = 'ni_valence.dat'
  plot_num = 10
  emin = -10.0
  emax = 0.0
/
