&INPUTPP
  prefix  = 'si111'
  outdir  = './tmp/'
  filplot = 'si_valence.dat'
  plot_num = 10
  emin = -13.0
  emax = 0.0
/
