&INPUTPP
  prefix  = 'ti0001'
  outdir  = './tmp/'
  filplot = 'ti_charge.dat'
  plot_num = 0
/
