&INPUTPP
  prefix  = 'ti0001'
  outdir  = './tmp/'
  filplot = 'ti_valence.dat'
  plot_num = 10
  emin = -10.0
  emax = 100.0
/
