&INPUTPP
  prefix  = 'zn0001'
  outdir  = './tmp/'
  filplot = 'zn_emin-12_valence.dat'
  plot_num = 10
  emin = -12.0
  emax = 100.0
/
