&PROJWFC
  prefix  = 'zn0001'
  outdir  = './tmp/'
  filpdos = 'zn_pdos'
  Emin    = -20.0
  Emax    = 15.0
  DeltaE  = 0.1
/
