num_wann = 1
num_bands = 10

dis_win_min  = -30.0
dis_win_max  = 50.0
dis_froz_min = -30.0
dis_froz_max = 3.0
dis_num_iter = 1000
dis_conv_tol = 1.0e-3
dis_mix_ratio = 0.5

num_iter = 500
num_print_cycles = 100

begin projections
  f=0.0,0.0,0.0:s
end projections

begin unit_cell_cart
bohr
  -3.8267484749474492E+00  0.0000000000000000E+00  3.8267484749474492E+00
  0.0000000000000000E+00  3.8267484749474492E+00  3.8267484749474492E+00
  -3.8267484749474492E+00  3.8267484749474492E+00  0.0000000000000000E+00
end unit_cell_cart

begin atoms_frac
  Al  -0.0000000000  0.0000000000  -0.0000000000
  Al  -0.0000000000  0.0000000000  -0.0000000000
end atoms_frac

mp_grid = 4 4 4

begin kpoints
  0.0000  0.0000  0.0000
  0.0000  0.0000  0.2500
  0.0000  0.0000  0.5000
  0.0000  0.0000  0.7500
  0.0000  0.2500  0.0000
  0.0000  0.2500  0.2500
  0.0000  0.2500  0.5000
  0.0000  0.2500  0.7500
  0.0000  0.5000  0.0000
  0.0000  0.5000  0.2500
  0.0000  0.5000  0.5000
  0.0000  0.5000  0.7500
  0.0000  0.7500  0.0000
  0.0000  0.7500  0.2500
  0.0000  0.7500  0.5000
  0.0000  0.7500  0.7500
  0.2500  0.0000  0.0000
  0.2500  0.0000  0.2500
  0.2500  0.0000  0.5000
  0.2500  0.0000  0.7500
  0.2500  0.2500  0.0000
  0.2500  0.2500  0.2500
  0.2500  0.2500  0.5000
  0.2500  0.2500  0.7500
  0.2500  0.5000  0.0000
  0.2500  0.5000  0.2500
  0.2500  0.5000  0.5000
  0.2500  0.5000  0.7500
  0.2500  0.7500  0.0000
  0.2500  0.7500  0.2500
  0.2500  0.7500  0.5000
  0.2500  0.7500  0.7500
  0.5000  0.0000  0.0000
  0.5000  0.0000  0.2500
  0.5000  0.0000  0.5000
  0.5000  0.0000  0.7500
  0.5000  0.2500  0.0000
  0.5000  0.2500  0.2500
  0.5000  0.2500  0.5000
  0.5000  0.2500  0.7500
  0.5000  0.5000  0.0000
  0.5000  0.5000  0.2500
  0.5000  0.5000  0.5000
  0.5000  0.5000  0.7500
  0.5000  0.7500  0.0000
  0.5000  0.7500  0.2500
  0.5000  0.7500  0.5000
  0.5000  0.7500  0.7500
  0.7500  0.0000  0.0000
  0.7500  0.0000  0.2500
  0.7500  0.0000  0.5000
  0.7500  0.0000  0.7500
  0.7500  0.2500  0.0000
  0.7500  0.2500  0.2500
  0.7500  0.2500  0.5000
  0.7500  0.2500  0.7500
  0.7500  0.5000  0.0000
  0.7500  0.5000  0.2500
  0.7500  0.5000  0.5000
  0.7500  0.5000  0.7500
  0.7500  0.7500  0.0000
  0.7500  0.7500  0.2500
  0.7500  0.7500  0.5000
  0.7500  0.7500  0.7500
end kpoints
