&CONTROL
  calculation = 'bands'
  prefix      = 'al_bulk'
  outdir      = './tmp_al/'
  pseudo_dir  = '../pseudo/'
/
&SYSTEM
  ibrav       = 0
  nat         = 1
  ntyp        = 1
  ecutwfc     = 30.0
  ecutrho     = 240.0
  occupations = 'smearing'
  smearing    = 'mp'
  degauss     = 0.02
  nosym       = .true.
  nbnd        = 10
/
&ELECTRONS
  conv_thr = 1.0d-8
/
ATOMIC_SPECIES
  Al  26.9815  Al.pbe-n-kjpaw_psl.1.0.0.UPF

CELL_PARAMETERS angstrom
  -2.0250280848  0.0000000000  2.0250280848
  0.0000000000  2.0250280848  2.0250280848
  -2.0250280848  2.0250280848  0.0000000000

ATOMIC_POSITIONS crystal
  Al  0.0  0.0  0.0

K_POINTS crystal
64
  0.0000  0.0000  0.0000  0.01562500
  0.0000  0.0000  0.2500  0.01562500
  0.0000  0.0000  0.5000  0.01562500
  0.0000  0.0000  0.7500  0.01562500
  0.0000  0.2500  0.0000  0.01562500
  0.0000  0.2500  0.2500  0.01562500
  0.0000  0.2500  0.5000  0.01562500
  0.0000  0.2500  0.7500  0.01562500
  0.0000  0.5000  0.0000  0.01562500
  0.0000  0.5000  0.2500  0.01562500
  0.0000  0.5000  0.5000  0.01562500
  0.0000  0.5000  0.7500  0.01562500
  0.0000  0.7500  0.0000  0.01562500
  0.0000  0.7500  0.2500  0.01562500
  0.0000  0.7500  0.5000  0.01562500
  0.0000  0.7500  0.7500  0.01562500
  0.2500  0.0000  0.0000  0.01562500
  0.2500  0.0000  0.2500  0.01562500
  0.2500  0.0000  0.5000  0.01562500
  0.2500  0.0000  0.7500  0.01562500
  0.2500  0.2500  0.0000  0.01562500
  0.2500  0.2500  0.2500  0.01562500
  0.2500  0.2500  0.5000  0.01562500
  0.2500  0.2500  0.7500  0.01562500
  0.2500  0.5000  0.0000  0.01562500
  0.2500  0.5000  0.2500  0.01562500
  0.2500  0.5000  0.5000  0.01562500
  0.2500  0.5000  0.7500  0.01562500
  0.2500  0.7500  0.0000  0.01562500
  0.2500  0.7500  0.2500  0.01562500
  0.2500  0.7500  0.5000  0.01562500
  0.2500  0.7500  0.7500  0.01562500
  0.5000  0.0000  0.0000  0.01562500
  0.5000  0.0000  0.2500  0.01562500
  0.5000  0.0000  0.5000  0.01562500
  0.5000  0.0000  0.7500  0.01562500
  0.5000  0.2500  0.0000  0.01562500
  0.5000  0.2500  0.2500  0.01562500
  0.5000  0.2500  0.5000  0.01562500
  0.5000  0.2500  0.7500  0.01562500
  0.5000  0.5000  0.0000  0.01562500
  0.5000  0.5000  0.2500  0.01562500
  0.5000  0.5000  0.5000  0.01562500
  0.5000  0.5000  0.7500  0.01562500
  0.5000  0.7500  0.0000  0.01562500
  0.5000  0.7500  0.2500  0.01562500
  0.5000  0.7500  0.5000  0.01562500
  0.5000  0.7500  0.7500  0.01562500
  0.7500  0.0000  0.0000  0.01562500
  0.7500  0.0000  0.2500  0.01562500
  0.7500  0.0000  0.5000  0.01562500
  0.7500  0.0000  0.7500  0.01562500
  0.7500  0.2500  0.0000  0.01562500
  0.7500  0.2500  0.2500  0.01562500
  0.7500  0.2500  0.5000  0.01562500
  0.7500  0.2500  0.7500  0.01562500
  0.7500  0.5000  0.0000  0.01562500
  0.7500  0.5000  0.2500  0.01562500
  0.7500  0.5000  0.5000  0.01562500
  0.7500  0.5000  0.7500  0.01562500
  0.7500  0.7500  0.0000  0.01562500
  0.7500  0.7500  0.2500  0.01562500
  0.7500  0.7500  0.5000  0.01562500
  0.7500  0.7500  0.7500  0.01562500
