&inputpp
  outdir   = './tmp_al/'
  prefix   = 'al_bulk'
  seedname = 'al'
  write_mmn = .true.
  write_amn = .true.
  write_unk = .false.
/
