&inputpp
  outdir   = './tmp_cu/'
  prefix   = 'cu_bulk'
  seedname = 'cu'
  write_mmn = .true.
  write_amn = .true.
  write_unk = .false.
/
