&CONTROL
  calculation = 'bands'
  prefix      = 'na_bulk'
  outdir      = './tmp_na/'
  pseudo_dir  = '../pseudo/'
/
&SYSTEM
  ibrav       = 3
  celldm(1)   = 7.9839
  nat         = 1
  ntyp        = 1
  ecutwfc     = 30.0
  ecutrho     = 240.0
  occupations = 'smearing'
  smearing    = 'mp'
  degauss     = 0.02
  nosym       = .true.
  nbnd        = 8
/
&ELECTRONS
  conv_thr = 1.0d-8
/
ATOMIC_SPECIES
  Na 22.9898 Na.pbe-spn-kjpaw_psl.1.0.0.UPF
ATOMIC_POSITIONS crystal
  Na 0.0 0.0 0.0
K_POINTS crystal
64
  0.000  0.000  0.000  0.015625
  0.000  0.000  0.250  0.015625
  0.000  0.000  0.500  0.015625
  0.000  0.000  0.750  0.015625
  0.000  0.250  0.000  0.015625
  0.000  0.250  0.250  0.015625
  0.000  0.250  0.500  0.015625
  0.000  0.250  0.750  0.015625
  0.000  0.500  0.000  0.015625
  0.000  0.500  0.250  0.015625
  0.000  0.500  0.500  0.015625
  0.000  0.500  0.750  0.015625
  0.000  0.750  0.000  0.015625
  0.000  0.750  0.250  0.015625
  0.000  0.750  0.500  0.015625
  0.000  0.750  0.750  0.015625
  0.250  0.000  0.000  0.015625
  0.250  0.000  0.250  0.015625
  0.250  0.000  0.500  0.015625
  0.250  0.000  0.750  0.015625
  0.250  0.250  0.000  0.015625
  0.250  0.250  0.250  0.015625
  0.250  0.250  0.500  0.015625
  0.250  0.250  0.750  0.015625
  0.250  0.500  0.000  0.015625
  0.250  0.500  0.250  0.015625
  0.250  0.500  0.500  0.015625
  0.250  0.500  0.750  0.015625
  0.250  0.750  0.000  0.015625
  0.250  0.750  0.250  0.015625
  0.250  0.750  0.500  0.015625
  0.250  0.750  0.750  0.015625
  0.500  0.000  0.000  0.015625
  0.500  0.000  0.250  0.015625
  0.500  0.000  0.500  0.015625
  0.500  0.000  0.750  0.015625
  0.500  0.250  0.000  0.015625
  0.500  0.250  0.250  0.015625
  0.500  0.250  0.500  0.015625
  0.500  0.250  0.750  0.015625
  0.500  0.500  0.000  0.015625
  0.500  0.500  0.250  0.015625
  0.500  0.500  0.500  0.015625
  0.500  0.500  0.750  0.015625
  0.500  0.750  0.000  0.015625
  0.500  0.750  0.250  0.015625
  0.500  0.750  0.500  0.015625
  0.500  0.750  0.750  0.015625
  0.750  0.000  0.000  0.015625
  0.750  0.000  0.250  0.015625
  0.750  0.000  0.500  0.015625
  0.750  0.000  0.750  0.015625
  0.750  0.250  0.000  0.015625
  0.750  0.250  0.250  0.015625
  0.750  0.250  0.500  0.015625
  0.750  0.250  0.750  0.015625
  0.750  0.500  0.000  0.015625
  0.750  0.500  0.250  0.015625
  0.750  0.500  0.500  0.015625
  0.750  0.500  0.750  0.015625
  0.750  0.750  0.000  0.015625
  0.750  0.750  0.250  0.015625
  0.750  0.750  0.500  0.015625
  0.750  0.750  0.750  0.015625
