&inputpp
  outdir   = './tmp_na/'
  prefix   = 'na_bulk'
  seedname = 'na'
  write_mmn = .true.
  write_amn = .true.
  write_unk = .false.
/
