num_wann = 12
num_bands = 24

dis_win_min  = -30.0
dis_win_max  = 50.0
dis_froz_min = -30.0
dis_froz_max = 7.0
dis_num_iter = 1000
dis_conv_tol = 1.0e-3
dis_mix_ratio = 0.5

num_iter = 500
num_print_cycles = 100

begin projections
  f=0.333333,0.666667,0.25:s;d
  f=0.666667,0.333333,0.75:s;d
end projections

begin unit_cell_cart
bohr
  5.0361201221276772E+00  0.0000000000000000E+00  0.0000000000000000E+00
  -2.5180600610638391E+00  4.3614079622999036E+00  0.0000000000000000E+00
  0.0000000000000000E+00  0.0000000000000000E+00  9.3484751385236855E+00
end unit_cell_cart

begin atoms_frac
  Zn  0.3333330000  0.6666670000  0.2500000000
  Zn  0.6666670000  0.3333330000  0.7500000000
  Zn  0.3333330000  0.6666670000  0.2500000000
  Zn  0.6666670000  0.3333330000  0.7500000000
end atoms_frac

mp_grid = 4 4 4

begin kpoints
  0.0000  0.0000  0.0000
  0.0000  0.0000  0.2500
  0.0000  0.0000  0.5000
  0.0000  0.0000  0.7500
  0.0000  0.2500  0.0000
  0.0000  0.2500  0.2500
  0.0000  0.2500  0.5000
  0.0000  0.2500  0.7500
  0.0000  0.5000  0.0000
  0.0000  0.5000  0.2500
  0.0000  0.5000  0.5000
  0.0000  0.5000  0.7500
  0.0000  0.7500  0.0000
  0.0000  0.7500  0.2500
  0.0000  0.7500  0.5000
  0.0000  0.7500  0.7500
  0.2500  0.0000  0.0000
  0.2500  0.0000  0.2500
  0.2500  0.0000  0.5000
  0.2500  0.0000  0.7500
  0.2500  0.2500  0.0000
  0.2500  0.2500  0.2500
  0.2500  0.2500  0.5000
  0.2500  0.2500  0.7500
  0.2500  0.5000  0.0000
  0.2500  0.5000  0.2500
  0.2500  0.5000  0.5000
  0.2500  0.5000  0.7500
  0.2500  0.7500  0.0000
  0.2500  0.7500  0.2500
  0.2500  0.7500  0.5000
  0.2500  0.7500  0.7500
  0.5000  0.0000  0.0000
  0.5000  0.0000  0.2500
  0.5000  0.0000  0.5000
  0.5000  0.0000  0.7500
  0.5000  0.2500  0.0000
  0.5000  0.2500  0.2500
  0.5000  0.2500  0.5000
  0.5000  0.2500  0.7500
  0.5000  0.5000  0.0000
  0.5000  0.5000  0.2500
  0.5000  0.5000  0.5000
  0.5000  0.5000  0.7500
  0.5000  0.7500  0.0000
  0.5000  0.7500  0.2500
  0.5000  0.7500  0.5000
  0.5000  0.7500  0.7500
  0.7500  0.0000  0.0000
  0.7500  0.0000  0.2500
  0.7500  0.0000  0.5000
  0.7500  0.0000  0.7500
  0.7500  0.2500  0.0000
  0.7500  0.2500  0.2500
  0.7500  0.2500  0.5000
  0.7500  0.2500  0.7500
  0.7500  0.5000  0.0000
  0.7500  0.5000  0.2500
  0.7500  0.5000  0.5000
  0.7500  0.5000  0.7500
  0.7500  0.7500  0.0000
  0.7500  0.7500  0.2500
  0.7500  0.7500  0.5000
  0.7500  0.7500  0.7500
end kpoints
