&CONTROL
  calculation = 'bands'
  prefix      = 'zn_bulk'
  outdir      = './tmp_zn/'
  pseudo_dir  = '../pseudo/'
/
&SYSTEM
  ibrav       = 0
  nat         = 2
  ntyp        = 1
  ecutwfc     = 40.0
  ecutrho     = 320.0
  occupations = 'smearing'
  smearing    = 'mp'
  degauss     = 0.02
  nosym       = .true.
  nbnd        = 24
/
&ELECTRONS
  conv_thr = 1.0d-8
/
ATOMIC_SPECIES
  Zn  65.38  Zn.pbe-dn-kjpaw_psl.1.0.0.UPF

CELL_PARAMETERS angstrom
  2.6650000000  0.0000000000  0.0000000000
  -1.3325000000  2.3079577011  0.0000000000
  0.0000000000  0.0000000000  4.9470000000

ATOMIC_POSITIONS crystal
  Zn  0.333333  0.666667  0.25
  Zn  0.666667  0.333333  0.75

K_POINTS crystal
64
  0.0000  0.0000  0.0000  0.01562500
  0.0000  0.0000  0.2500  0.01562500
  0.0000  0.0000  0.5000  0.01562500
  0.0000  0.0000  0.7500  0.01562500
  0.0000  0.2500  0.0000  0.01562500
  0.0000  0.2500  0.2500  0.01562500
  0.0000  0.2500  0.5000  0.01562500
  0.0000  0.2500  0.7500  0.01562500
  0.0000  0.5000  0.0000  0.01562500
  0.0000  0.5000  0.2500  0.01562500
  0.0000  0.5000  0.5000  0.01562500
  0.0000  0.5000  0.7500  0.01562500
  0.0000  0.7500  0.0000  0.01562500
  0.0000  0.7500  0.2500  0.01562500
  0.0000  0.7500  0.5000  0.01562500
  0.0000  0.7500  0.7500  0.01562500
  0.2500  0.0000  0.0000  0.01562500
  0.2500  0.0000  0.2500  0.01562500
  0.2500  0.0000  0.5000  0.01562500
  0.2500  0.0000  0.7500  0.01562500
  0.2500  0.2500  0.0000  0.01562500
  0.2500  0.2500  0.2500  0.01562500
  0.2500  0.2500  0.5000  0.01562500
  0.2500  0.2500  0.7500  0.01562500
  0.2500  0.5000  0.0000  0.01562500
  0.2500  0.5000  0.2500  0.01562500
  0.2500  0.5000  0.5000  0.01562500
  0.2500  0.5000  0.7500  0.01562500
  0.2500  0.7500  0.0000  0.01562500
  0.2500  0.7500  0.2500  0.01562500
  0.2500  0.7500  0.5000  0.01562500
  0.2500  0.7500  0.7500  0.01562500
  0.5000  0.0000  0.0000  0.01562500
  0.5000  0.0000  0.2500  0.01562500
  0.5000  0.0000  0.5000  0.01562500
  0.5000  0.0000  0.7500  0.01562500
  0.5000  0.2500  0.0000  0.01562500
  0.5000  0.2500  0.2500  0.01562500
  0.5000  0.2500  0.5000  0.01562500
  0.5000  0.2500  0.7500  0.01562500
  0.5000  0.5000  0.0000  0.01562500
  0.5000  0.5000  0.2500  0.01562500
  0.5000  0.5000  0.5000  0.01562500
  0.5000  0.5000  0.7500  0.01562500
  0.5000  0.7500  0.0000  0.01562500
  0.5000  0.7500  0.2500  0.01562500
  0.5000  0.7500  0.5000  0.01562500
  0.5000  0.7500  0.7500  0.01562500
  0.7500  0.0000  0.0000  0.01562500
  0.7500  0.0000  0.2500  0.01562500
  0.7500  0.0000  0.5000  0.01562500
  0.7500  0.0000  0.7500  0.01562500
  0.7500  0.2500  0.0000  0.01562500
  0.7500  0.2500  0.2500  0.01562500
  0.7500  0.2500  0.5000  0.01562500
  0.7500  0.2500  0.7500  0.01562500
  0.7500  0.5000  0.0000  0.01562500
  0.7500  0.5000  0.2500  0.01562500
  0.7500  0.5000  0.5000  0.01562500
  0.7500  0.5000  0.7500  0.01562500
  0.7500  0.7500  0.0000  0.01562500
  0.7500  0.7500  0.2500  0.01562500
  0.7500  0.7500  0.5000  0.01562500
  0.7500  0.7500  0.7500  0.01562500
