&inputpp
  outdir   = './tmp_zn/'
  prefix   = 'zn_bulk'
  seedname = 'zn'
  write_mmn = .true.
  write_amn = .true.
  write_unk = .false.
/
