&CONTROL
    calculation   = 'scf'
    prefix        = 'NaCl'
    outdir        = './tmp'
    pseudo_dir    = '../surface_tension/qe_slab/pseudo/'
    verbosity     = 'low'
/
&SYSTEM
    ibrav         = 1
    celldm(1)     = 21.316111
    nat           = 64
    ntyp          = 2
    ecutwfc       = 50.0
    ecutrho       = 400.0
    occupations   = 'fixed'
    nbnd          = 260
/
&ELECTRONS
    conv_thr      = 1.0d-8
    mixing_beta   = 0.7
    mixing_ndim   = 4
    diago_david_ndim = 2
/
ATOMIC_SPECIES
 Na  22.98976928  Na.pbe-spn-kjpaw_psl.1.0.0.UPF
 Cl  35.453       Cl.pbe-n-kjpaw_psl.1.0.0.UPF

K_POINTS gamma

ATOMIC_POSITIONS crystal
 Na  0.0000000000  0.0000000000  0.0000000000
 Na  0.2500000000  0.2500000000  0.0000000000
 Na  0.2500000000  0.0000000000  0.2500000000
 Na  0.0000000000  0.2500000000  0.2500000000
 Na  0.0000000000  0.0000000000  0.5000000000
 Na  0.2500000000  0.2500000000  0.5000000000
 Na  0.2500000000  0.0000000000  0.7500000000
 Na  0.0000000000  0.2500000000  0.7500000000
 Na  0.0000000000  0.5000000000  0.0000000000
 Na  0.2500000000  0.7500000000  0.0000000000
 Na  0.2500000000  0.5000000000  0.2500000000
 Na  0.0000000000  0.7500000000  0.2500000000
 Na  0.0000000000  0.5000000000  0.5000000000
 Na  0.2500000000  0.7500000000  0.5000000000
 Na  0.2500000000  0.5000000000  0.7500000000
 Na  0.0000000000  0.7500000000  0.7500000000
 Na  0.5000000000  0.0000000000  0.0000000000
 Na  0.7500000000  0.2500000000  0.0000000000
 Na  0.7500000000  0.0000000000  0.2500000000
 Na  0.5000000000  0.2500000000  0.2500000000
 Na  0.5000000000  0.0000000000  0.5000000000
 Na  0.7500000000  0.2500000000  0.5000000000
 Na  0.7500000000  0.0000000000  0.7500000000
 Na  0.5000000000  0.2500000000  0.7500000000
 Na  0.5000000000  0.5000000000  0.0000000000
 Na  0.7500000000  0.7500000000  0.0000000000
 Na  0.7500000000  0.5000000000  0.2500000000
 Na  0.5000000000  0.7500000000  0.2500000000
 Na  0.5000000000  0.5000000000  0.5000000000
 Na  0.7500000000  0.7500000000  0.5000000000
 Na  0.7500000000  0.5000000000  0.7500000000
 Na  0.5000000000  0.7500000000  0.7500000000
 Cl  0.2500000000  0.0000000000  0.0000000000
 Cl  0.0000000000  0.2500000000  0.0000000000
 Cl  0.0000000000  0.0000000000  0.2500000000
 Cl  0.2500000000  0.2500000000  0.2500000000
 Cl  0.2500000000  0.0000000000  0.5000000000
 Cl  0.0000000000  0.2500000000  0.5000000000
 Cl  0.0000000000  0.0000000000  0.7500000000
 Cl  0.2500000000  0.2500000000  0.7500000000
 Cl  0.2500000000  0.5000000000  0.0000000000
 Cl  0.0000000000  0.7500000000  0.0000000000
 Cl  0.0000000000  0.5000000000  0.2500000000
 Cl  0.2500000000  0.7500000000  0.2500000000
 Cl  0.2500000000  0.5000000000  0.5000000000
 Cl  0.0000000000  0.7500000000  0.5000000000
 Cl  0.0000000000  0.5000000000  0.7500000000
 Cl  0.2500000000  0.7500000000  0.7500000000
 Cl  0.7500000000  0.0000000000  0.0000000000
 Cl  0.5000000000  0.2500000000  0.0000000000
 Cl  0.5000000000  0.0000000000  0.2500000000
 Cl  0.7500000000  0.2500000000  0.2500000000
 Cl  0.7500000000  0.0000000000  0.5000000000
 Cl  0.5000000000  0.2500000000  0.5000000000
 Cl  0.5000000000  0.0000000000  0.7500000000
 Cl  0.7500000000  0.2500000000  0.7500000000
 Cl  0.7500000000  0.5000000000  0.0000000000
 Cl  0.5000000000  0.7500000000  0.0000000000
 Cl  0.5000000000  0.5000000000  0.2500000000
 Cl  0.7500000000  0.7500000000  0.2500000000
 Cl  0.7500000000  0.5000000000  0.5000000000
 Cl  0.5000000000  0.7500000000  0.5000000000
 Cl  0.5000000000  0.5000000000  0.7500000000
 Cl  0.7500000000  0.7500000000  0.7500000000
